data/CVRPLIB/Vrp-Set-XML100/instances/XML100_3212_01.vrp
NAME : XML100_3212_01
COMMENT : Generated by Queiroga, Sadykov, Uchoa, and Vidal (2021)
TYPE : CVRP
DIMENSION : 101
EDGE_WEIGHT_TYPE : EUC_2D
CAPACITY : 6
NODE_COORD_SECTION
1    0    0   
2    988  375 
3    988  444 
4    681  626 
5    916  316 
6    893  344 
7    861  528 
8    961  287 
9    862  291 
10   980  381 
11   988  194 
12   766  272 
13   914  287 
14   594  779 
15   741  701 
16   946  398 
17   744  695 
18   817  679 
19   933  268 
20   721  705 
21   982  659 
22   801  389 
23   792  642 
24   845  648 
25   845  575 
26   744  673 
27   986  342 
28   719  737 
29   743  781 
30   967  133 
31   972  285 
32   980  240 
33   474  897 
34   846  219 
35   879  683 
36   753  720 
37   828  787 
38   935  320 
39   865  753 
40   392  767 
41   840  234 
42   784  754 
43   969  91  
44   870  615 
45   806  724 
46   850  623 
47   764  697 
48   868  228 
49   799  642 
50   951  505 
51   908  303 
52   783  738 
53   929  206 
54   690  488 
55   819  756 
56   947  341 
57   689  581 
58   849  383 
59   855  308 
60   817  684 
61   950  134 
62   946  98  
63   972  140 
64   791  716 
65   824  381 
66   803  719 
67   771  697 
68   908  205 
69   852  369 
70   639  686 
71   749  613 
72   901  770 
73   913  331 
74   782  112 
75   812  666 
76   670  662 
77   761  841 
78   802  464 
79   987  353 
80   788  715 
81   774  702 
82   929  467 
83   847  680 
84   922  420 
85   988  256 
86   903  354 
87   921  289 
88   845  662 
89   898  262 
90   903  539 
91   911  235 
92   931  390 
93   920  841 
94   635  655 
95   900  783 
96   899  257 
97   892  769 
98   753  793 
99   838  790 
100  918  288 
101  869  648 
DEMAND_SECTION
1    0   
2    1   
3    1   
4    1   
5    1   
6    1   
7    1   
8    1   
9    1   
10   1   
11   1   
12   1   
13   1   
14   1   
15   1   
16   1   
17   1   
18   1   
19   1   
20   1   
21   1   
22   1   
23   1   
24   1   
25   1   
26   1   
27   1   
28   1   
29   1   
30   1   
31   1   
32   1   
33   1   
34   1   
35   1   
36   1   
37   1   
38   1   
39   1   
40   1   
41   1   
42   1   
43   1   
44   1   
45   1   
46   1   
47   1   
48   1   
49   1   
50   1   
51   1   
52   1   
53   1   
54   1   
55   1   
56   1   
57   1   
58   1   
59   1   
60   1   
61   1   
62   1   
63   1   
64   1   
65   1   
66   1   
67   1   
68   1   
69   1   
70   1   
71   1   
72   1   
73   1   
74   1   
75   1   
76   1   
77   1   
78   1   
79   1   
80   1   
81   1   
82   1   
83   1   
84   1   
85   1   
86   1   
87   1   
88   1   
89   1   
90   1   
91   1   
92   1   
93   1   
94   1   
95   1   
96   1   
97   1   
98   1   
99   1   
100  1   
101  1   
DEPOT_SECTION
1
-1
EOF
