data/CVRPLIB/Vrp-Set-XML100/solutions/XML100_3212_01.sol
Route #1: 73 60 62 29 42 61
Route #2: 18 7 30 84 31 10
Route #3: 38 96 71 94 92 20
Route #4: 58 5 85 72 4 50
Route #5: 75 19 14 16 25 56
Route #6: 33 67 52 90 47 40
Route #7: 9 1 78 26 55 37
Route #8: 93 69 13 32 39
Route #9: 77 6 89 43 24 53
Route #10: 45 100 34 82 87 23
Route #11: 95 88 86 99 12 8
Route #12: 70 59 17 74 48 22
Route #13: 91 15 2 49 81 83
Route #14: 28 97 76 98 36 54
Route #15: 3 46 66 80 35 27
Route #16: 21 64 57 68 11
Route #17: 51 41 44 65 63 79
Cost 36582
